\ENCODING=ISO-8859-1
\Problem name: ILOG.CPLEX

Minimize
 obj: y(9)#0 + y(8)#1 + y(7)#2 + y(6)#3 + y(5)#4 + y(4)#5 + y(3)#6 + y(2)#7
      + y(1)#8 + y(0)#9
Subject To
 c1:  y(0)#9 >= 10
 c2:  y(1)#8 >= 11
 c3:  y(2)#7 >= 11
 c4:  y(3)#6 >= 12
 c5:  y(4)#5 >= 12
 c6:  y(5)#4 >= 12
 c7:  y(6)#3 >= 10
 c8:  y(7)#2 >= 11
 c9:  y(8)#1 >= 12
 c10: y(9)#0 >= 10
End
